p edge 75 1110
e 1 3
e 1 5
e 1 8
e 1 10
e 1 12
e 1 18
e 1 19
e 1 24
e 1 25
e 1 26
e 1 29
e 1 31
e 1 33
e 1 35
e 1 38
e 1 43
e 1 44
e 1 48
e 1 53
e 1 54
e 1 55
e 1 57
e 1 58
e 1 60
e 1 62
e 1 63
e 1 65
e 1 70
e 1 71
e 1 72
e 1 75
e 2 3
e 2 8
e 2 9
e 2 16
e 2 17
e 2 18
e 2 19
e 2 23
e 2 24
e 2 26
e 2 27
e 2 28
e 2 35
e 2 38
e 2 39
e 2 40
e 2 43
e 2 45
e 2 59
e 2 61
e 2 63
e 2 66
e 2 70
e 2 73
e 3 9
e 3 10
e 3 14
e 3 17
e 3 19
e 3 23
e 3 25
e 3 31
e 3 37
e 3 38
e 3 39
e 3 47
e 3 50
e 3 53
e 3 56
e 3 59
e 3 62
e 3 63
e 3 68
e 3 71
e 4 5
e 4 6
e 4 9
e 4 10
e 4 12
e 4 13
e 4 14
e 4 15
e 4 17
e 4 18
e 4 19
e 4 21
e 4 27
e 4 28
e 4 33
e 4 34
e 4 35
e 4 36
e 4 41
e 4 44
e 4 46
e 4 47
e 4 49
e 4 50
e 4 52
e 4 53
e 4 54
e 4 56
e 4 58
e 4 59
e 4 60
e 4 66
e 4 68
e 4 69
e 4 70
e 4 74
e 4 75
e 5 7
e 5 8
e 5 11
e 5 13
e 5 15
e 5 17
e 5 19
e 5 20
e 5 27
e 5 29
e 5 31
e 5 33
e 5 35
e 5 36
e 5 39
e 5 40
e 5 43
e 5 45
e 5 48
e 5 50
e 5 56
e 5 57
e 5 59
e 5 60
e 5 62
e 5 65
e 5 71
e 5 72
e 5 75
e 6 7
e 6 9
e 6 10
e 6 12
e 6 13
e 6 18
e 6 20
e 6 21
e 6 27
e 6 28
e 6 36
e 6 37
e 6 38
e 6 46
e 6 49
e 6 50
e 6 52
e 6 53
e 6 56
e 6 57
e 6 59
e 6 61
e 6 62
e 6 66
e 6 68
e 6 74
e 7 11
e 7 14
e 7 18
e 7 25
e 7 29
e 7 32
e 7 33
e 7 35
e 7 36
e 7 37
e 7 38
e 7 40
e 7 46
e 7 47
e 7 49
e 7 52
e 7 53
e 7 54
e 7 56
e 7 58
e 7 60
e 7 62
e 7 63
e 7 70
e 7 74
e 7 75
e 8 9
e 8 11
e 8 13
e 8 17
e 8 18
e 8 20
e 8 23
e 8 26
e 8 30
e 8 34
e 8 39
e 8 41
e 8 43
e 8 45
e 8 52
e 8 57
e 8 60
e 8 61
e 8 62
e 8 64
e 8 65
e 8 67
e 8 69
e 8 71
e 9 12
e 9 14
e 9 15
e 9 16
e 9 18
e 9 20
e 9 23
e 9 24
e 9 27
e 9 28
e 9 29
e 9 32
e 9 36
e 9 40
e 9 41
e 9 51
e 9 54
e 9 57
e 9 58
e 9 60
e 9 64
e 9 65
e 9 67
e 9 70
e 9 72
e 9 73
e 10 12
e 10 14
e 10 18
e 10 20
e 10 21
e 10 22
e 10 23
e 10 30
e 10 32
e 10 35
e 10 37
e 10 39
e 10 40
e 10 43
e 10 44
e 10 46
e 10 48
e 10 50
e 10 51
e 10 54
e 10 58
e 10 61
e 10 62
e 10 63
e 10 65
e 10 67
e 10 68
e 10 69
e 10 70
e 10 72
e 11 17
e 11 23
e 11 28
e 11 31
e 11 34
e 11 35
e 11 36
e 11 39
e 11 41
e 11 42
e 11 45
e 11 46
e 11 48
e 11 51
e 11 52
e 11 53
e 11 54
e 11 55
e 11 58
e 11 62
e 11 66
e 11 67
e 11 69
e 11 71
e 11 72
e 11 74
e 12 14
e 12 16
e 12 17
e 12 18
e 12 29
e 12 31
e 12 32
e 12 34
e 12 35
e 12 38
e 12 40
e 12 42
e 12 49
e 12 52
e 12 54
e 12 59
e 12 61
e 12 63
e 12 66
e 12 71
e 12 73
e 13 15
e 13 16
e 13 20
e 13 22
e 13 23
e 13 32
e 13 33
e 13 34
e 13 35
e 13 36
e 13 37
e 13 39
e 13 40
e 13 43
e 13 44
e 13 48
e 13 49
e 13 52
e 13 53
e 13 54
e 13 62
e 13 68
e 13 72
e 13 73
e 13 74
e 13 75
e 14 15
e 14 18
e 14 22
e 14 23
e 14 25
e 14 27
e 14 28
e 14 30
e 14 32
e 14 34
e 14 35
e 14 36
e 14 37
e 14 40
e 14 42
e 14 43
e 14 45
e 14 49
e 14 52
e 14 57
e 14 60
e 14 62
e 14 73
e 14 74
e 15 16
e 15 18
e 15 23
e 15 28
e 15 32
e 15 36
e 15 40
e 15 41
e 15 42
e 15 46
e 15 49
e 15 52
e 15 56
e 15 58
e 15 59
e 15 60
e 15 61
e 15 63
e 15 65
e 15 66
e 15 67
e 15 69
e 15 72
e 15 73
e 15 75
e 16 20
e 16 21
e 16 22
e 16 26
e 16 30
e 16 31
e 16 33
e 16 35
e 16 36
e 16 37
e 16 39
e 16 40
e 16 43
e 16 45
e 16 50
e 16 51
e 16 53
e 16 54
e 16 55
e 16 58
e 16 60
e 16 62
e 16 68
e 16 69
e 16 70
e 16 71
e 17 22
e 17 23
e 17 27
e 17 31
e 17 33
e 17 34
e 17 35
e 17 46
e 17 48
e 17 52
e 17 53
e 17 56
e 17 59
e 17 60
e 17 62
e 17 64
e 17 66
e 17 68
e 17 74
e 17 75
e 18 20
e 18 22
e 18 31
e 18 32
e 18 34
e 18 36
e 18 37
e 18 41
e 18 44
e 18 47
e 18 50
e 18 53
e 18 56
e 18 57
e 18 58
e 18 60
e 18 61
e 18 62
e 18 63
e 18 65
e 18 67
e 18 69
e 18 71
e 18 73
e 18 75
e 19 20
e 19 23
e 19 24
e 19 26
e 19 31
e 19 32
e 19 34
e 19 36
e 19 37
e 19 38
e 19 44
e 19 46
e 19 48
e 19 50
e 19 55
e 19 58
e 19 59
e 19 64
e 19 66
e 19 68
e 19 70
e 20 21
e 20 22
e 20 25
e 20 31
e 20 35
e 20 38
e 20 39
e 20 40
e 20 46
e 20 47
e 20 52
e 20 57
e 20 58
e 20 61
e 20 62
e 20 64
e 20 65
e 20 66
e 20 69
e 20 72
e 20 73
e 20 74
e 20 75
e 21 22
e 21 23
e 21 24
e 21 28
e 21 34
e 21 36
e 21 37
e 21 39
e 21 40
e 21 43
e 21 44
e 21 45
e 21 46
e 21 53
e 21 57
e 21 62
e 21 63
e 21 67
e 21 68
e 21 69
e 21 73
e 21 75
e 22 23
e 22 24
e 22 28
e 22 29
e 22 30
e 22 32
e 22 35
e 22 36
e 22 37
e 22 39
e 22 40
e 22 42
e 22 43
e 22 44
e 22 49
e 22 52
e 22 53
e 22 59
e 22 60
e 22 66
e 22 67
e 22 69
e 23 24
e 23 25
e 23 27
e 23 35
e 23 36
e 23 43
e 23 46
e 23 48
e 23 53
e 23 56
e 23 62
e 23 66
e 23 72
e 23 74
e 23 75
e 24 27
e 24 28
e 24 39
e 24 42
e 24 44
e 24 45
e 24 49
e 24 50
e 24 53
e 24 55
e 24 57
e 24 58
e 24 60
e 24 61
e 24 62
e 24 65
e 24 69
e 24 70
e 24 71
e 24 72
e 24 73
e 25 28
e 25 30
e 25 32
e 25 35
e 25 36
e 25 40
e 25 41
e 25 42
e 25 46
e 25 48
e 25 50
e 25 51
e 25 54
e 25 58
e 25 64
e 25 65
e 25 66
e 25 69
e 25 72
e 25 73
e 25 75
e 26 27
e 26 31
e 26 32
e 26 40
e 26 43
e 26 44
e 26 46
e 26 50
e 26 51
e 26 52
e 26 58
e 26 59
e 26 61
e 26 62
e 26 68
e 26 70
e 27 30
e 27 32
e 27 34
e 27 38
e 27 41
e 27 42
e 27 45
e 27 46
e 27 49
e 27 53
e 27 54
e 27 59
e 27 65
e 27 66
e 27 67
e 28 29
e 28 31
e 28 33
e 28 35
e 28 36
e 28 40
e 28 42
e 28 43
e 28 45
e 28 52
e 28 60
e 28 66
e 28 67
e 28 70
e 28 73
e 28 75
e 29 30
e 29 31
e 29 35
e 29 37
e 29 38
e 29 39
e 29 41
e 29 42
e 29 44
e 29 49
e 29 52
e 29 54
e 29 56
e 29 62
e 29 63
e 29 71
e 29 72
e 30 32
e 30 33
e 30 37
e 30 38
e 30 39
e 30 41
e 30 42
e 30 43
e 30 45
e 30 48
e 30 49
e 30 51
e 30 54
e 30 55
e 30 57
e 30 58
e 30 60
e 30 63
e 30 64
e 30 65
e 30 67
e 30 70
e 30 74
e 31 32
e 31 35
e 31 36
e 31 42
e 31 43
e 31 44
e 31 45
e 31 48
e 31 49
e 31 51
e 31 52
e 31 53
e 31 55
e 31 56
e 31 57
e 31 58
e 31 62
e 31 67
e 31 69
e 31 74
e 31 75
e 32 34
e 32 36
e 32 41
e 32 43
e 32 44
e 32 45
e 32 46
e 32 48
e 32 50
e 32 54
e 32 59
e 32 60
e 32 61
e 32 63
e 32 66
e 32 74
e 33 39
e 33 42
e 33 49
e 33 53
e 33 55
e 33 57
e 33 58
e 33 61
e 33 62
e 33 67
e 33 68
e 33 70
e 33 74
e 34 35
e 34 37
e 34 38
e 34 41
e 34 42
e 34 47
e 34 49
e 34 50
e 34 51
e 34 52
e 34 53
e 34 54
e 34 57
e 34 58
e 34 59
e 34 60
e 34 69
e 34 70
e 34 72
e 35 43
e 35 45
e 35 46
e 35 47
e 35 48
e 35 50
e 35 53
e 35 59
e 35 70
e 35 73
e 36 38
e 36 41
e 36 42
e 36 44
e 36 45
e 36 46
e 36 49
e 36 51
e 36 54
e 36 55
e 36 59
e 36 61
e 36 63
e 36 64
e 36 65
e 36 66
e 36 69
e 36 70
e 36 72
e 36 73
e 36 74
e 36 75
e 37 42
e 37 46
e 37 50
e 37 53
e 37 58
e 37 61
e 37 64
e 37 65
e 37 66
e 37 68
e 37 70
e 37 73
e 37 74
e 37 75
e 38 39
e 38 40
e 38 42
e 38 44
e 38 46
e 38 47
e 38 52
e 38 53
e 38 54
e 38 56
e 38 59
e 38 60
e 38 61
e 38 63
e 38 69
e 38 74
e 38 75
e 39 42
e 39 44
e 39 48
e 39 54
e 39 55
e 39 60
e 39 64
e 39 67
e 39 70
e 39 72
e 40 41
e 40 42
e 40 44
e 40 47
e 40 48
e 40 49
e 40 53
e 40 54
e 40 56
e 40 59
e 40 61
e 40 62
e 40 63
e 40 65
e 40 69
e 40 72
e 40 74
e 41 43
e 41 46
e 41 47
e 41 48
e 41 49
e 41 53
e 41 54
e 41 56
e 41 57
e 41 58
e 41 59
e 41 60
e 41 61
e 41 65
e 41 67
e 41 73
e 41 75
e 42 43
e 42 44
e 42 48
e 42 50
e 42 55
e 42 56
e 42 57
e 42 58
e 42 61
e 42 63
e 42 66
e 42 68
e 42 69
e 42 71
e 42 73
e 42 74
e 42 75
e 43 44
e 43 45
e 43 47
e 43 48
e 43 49
e 43 52
e 43 63
e 43 72
e 43 74
e 43 75
e 44 45
e 44 46
e 44 47
e 44 48
e 44 49
e 44 51
e 44 54
e 44 59
e 44 60
e 44 61
e 44 62
e 44 63
e 44 65
e 44 67
e 44 72
e 44 73
e 44 75
e 45 46
e 45 48
e 45 49
e 45 50
e 45 52
e 45 53
e 45 64
e 45 66
e 45 68
e 45 69
e 45 72
e 45 75
e 46 47
e 46 48
e 46 51
e 46 55
e 46 64
e 46 67
e 46 70
e 46 71
e 46 74
e 47 49
e 47 50
e 47 52
e 47 53
e 47 54
e 47 55
e 47 57
e 47 58
e 47 59
e 47 61
e 47 64
e 47 66
e 47 67
e 47 71
e 47 72
e 47 73
e 47 74
e 48 49
e 48 50
e 48 62
e 48 63
e 48 64
e 48 68
e 48 70
e 48 72
e 48 75
e 49 51
e 49 52
e 49 53
e 49 54
e 49 55
e 49 56
e 49 64
e 49 65
e 49 66
e 49 72
e 49 74
e 50 51
e 50 53
e 50 55
e 50 57
e 50 58
e 50 61
e 50 64
e 50 66
e 50 68
e 50 69
e 50 74
e 50 75
e 51 57
e 51 64
e 51 65
e 51 71
e 51 73
e 51 74
e 51 75
e 52 53
e 52 54
e 52 63
e 52 66
e 52 67
e 52 68
e 52 70
e 52 73
e 53 56
e 53 58
e 53 61
e 53 64
e 53 65
e 53 68
e 53 73
e 54 60
e 54 62
e 54 64
e 54 65
e 54 73
e 55 56
e 55 57
e 55 58
e 55 60
e 55 63
e 55 64
e 55 71
e 55 75
e 56 57
e 56 58
e 56 60
e 56 62
e 56 64
e 56 71
e 56 73
e 57 59
e 57 60
e 57 61
e 57 62
e 57 65
e 57 68
e 57 69
e 57 70
e 57 71
e 57 73
e 57 74
e 58 59
e 58 60
e 58 61
e 58 62
e 58 64
e 58 65
e 58 66
e 58 68
e 58 71
e 59 60
e 59 63
e 59 66
e 59 68
e 59 71
e 59 74
e 59 75
e 60 61
e 60 63
e 60 68
e 60 69
e 60 70
e 60 72
e 60 75
e 61 62
e 61 67
e 61 68
e 61 70
e 62 63
e 62 66
e 62 67
e 62 69
e 62 70
e 62 71
e 62 74
e 63 64
e 63 67
e 63 68
e 63 70
e 63 71
e 63 74
e 63 75
e 64 65
e 64 66
e 64 67
e 64 71
e 65 67
e 65 68
e 65 69
e 65 70
e 65 71
e 65 74
e 66 68
e 66 69
e 66 72
e 66 73
e 67 68
e 67 72
e 67 73
e 67 74
e 68 75
e 69 70
e 69 71
e 69 72
e 69 75
e 70 71
e 70 72
e 70 73
e 71 73
e 71 74
